clingo version 5.6.2
Reading from ...o/load_multiple/load_multiple-facts.lp ...
Solving...
Answer: 1
source(a,b,c) source(b,a,d) source(b,c,d) source(q,b,c) source(q,e,d) source(t,b,c) source(x,y,z) combined(a,b,c) combined(b,a,d) combined(b,c,d) combined(q,b,c) combined(q,e,d) combined(t,b,c) combined(x,y,z) constant(x) constant(a) constant(q) constant(t)
SATISFIABLE

Models       : 1
Calls        : 1
Time         : 0.000s (Solving: 0.00s 1st Model: 0.00s Unsat: 0.00s)
CPU Time     : 0.000s
